SAT
-143 85 142 132 70 83 -16 -92 -9 15 106 111 -95 145 -125 110 90 -65 -134 96 -50 -150 -133 -131 -87 -47 -27 73 11 3 -34 119 126 4 28 38 117 101 75 72 -99 51 144 1 -122 -115 -80 -135 -36 123 113 -43 -33 116 86 -88 40 -148 74 -59 67 -19 137 -42 17 139 -46 91 55 26 52 -104 -93 -140 -56 -118 31 -100 -21 -120 77 39 -14 -48 -108 81 13 -141 -136 -8 -146 69 103 -7 -114 -149 102 79 68 -60 12 -127 98 71 -57 -128 22 -25 -138 -41 -10 -62 5 124 -107 -6 37 -147 -53 58 -61 -45 -121 20 -76 -24 -97 -78 -29 94 30 23 -32 -63 82 -109 -44 -112 -49 -35 129 -2 -66 -54 -64 -130 -18 84 105 -89 0
